! b3lyp def2-svp

* XYZFILE 0 1 paracetamol.xyz

%pal
nprocs 6
end
