! wB97M-V DEF2-SVP

* XYZFILE 0 1 paracetamol.xyz
