! wB97M-V DEF2-SVP SMD(WATER)

* XYZFILE 0 1 paracetamol.xyz
