! b3lyp def2-svp SMD(ethanol)

* XYZFILE 0 1 paracetamol.xyz

