# Calculations for Boys-Bernardi CP correction
#

# --------------------------------------------
# First the monomer. In principle, you only need
# to run it once, but we keep it for clarity.
# --------------------------------------------
! wb97x def2-qzvp VeryTightSCF PModel
%id "monomer"
* xyz 0 1
O   -0.702196054  -0.056060256   0.009942262
H   -1.022193224   0.846775782  -0.011488714
H    0.257521062   0.042121496   0.005218999
*

$new_job
! wb97x def2-qzvp VeryTightSCF PModel
%id "monomer"
* xyz 0 1
O    2.220871067   0.026716792   0.000620476
H    2.597492682  -0.411663274   0.766744858
H    2.593135384  -0.449496183  -0.744782026 
*

# --------------------------------------------
# now the dimer
# --------------------------------------------
$new_job
! wb97x def2-qzvp VeryTightSCF PModel
%id "dimer"
* xyz 0 1
O   -0.702196054  -0.056060256   0.009942262
H   -1.022193224   0.846775782  -0.011488714
H    0.257521062   0.042121496   0.005218999
O    2.220871067   0.026716792   0.000620476
H    2.597492682  -0.411663274   0.766744858
H    2.593135384  -0.449496183  -0.744782026 
*

# --------------------------------------------
# Now the calculation of the monomer at the
# dimer geometry but with the dimer basis set
# --------------------------------------------
$new_job
! wb97x def2-qzvp VeryTightSCF PModel
%id "monomer_ghost"
* xyz 0 1
O   -0.702196054  -0.056060256   0.009942262
H   -1.022193224   0.846775782  -0.011488714
H    0.257521062   0.042121496   0.005218999
O:   2.220871067   0.026716792   0.000620476
H:   2.597492682  -0.411663274   0.766744858
H:   2.593135384  -0.449496183  -0.744782026 
*

$new_job
! wb97x def2-qzvp VeryTightSCF PModel
%id "monomer_ghost"
* xyz 0 1
O:  -0.702196054  -0.056060256   0.009942262
H:  -1.022193224   0.846775782  -0.011488714
H:   0.257521062   0.042121496   0.005218999
O    2.220871067   0.026716792   0.000620476
H    2.597492682  -0.411663274   0.766744858
H    2.593135384  -0.449496183  -0.744782026 
*
